67500
4 6 16 -1 500 500 500 
10 8 9 12 -1 500 500 250 250 
2
1
1 -1 40 
15 -1 40 
17 -1 40 
1 -1 40 
15 -1 40 
17 -1 40 
5 -1 40 
11 -1 40 
13 -1 40 
3 7 -1 25 15 
19 20 -1 25 15 
1 15 -1 20 20 
17 5 7 -1 20 10 10 
11 13 20 12 -1 10 10 10 10 
12 -1 40 
12 -1 40 
12 -1 40 
12 -1 40 
12 -1 40 
12 -1 40 
15 -1 40 
15 -1 40 
15 18 -1 20 20 
18 14 2 -1 5 25 10 
2
1 -1 40 
1 -1 40 
1 17 -1 20 20 
11 -1 40 
11 17 -1 10 30 
17 -1 40 
17 5 -1 10 30 
5 13 -1 20 20 
13 3 -1 30 10 
19 3 -1 25 15 
2 -1 15 
